% seed = 8308008

mint = 45;
% maxt = 240;

nActs = 42;
dur = [0,6,5,3,10,7,7,5,1,6,7,5,8,3,3,5,5,3,6,5,7,10,8,6,9,4,6,7,5,10,8,5,8,3,8,8,5,7,10,1,5,0];

nSkills = 4;
sreq = [| 0,0,0,0,
	| 6,3,0,0,
	| 0,6,0,5,
	| 4,0,3,0,
	| 0,0,3,3,
	| 0,3,3,0,
	| 0,0,6,6,
	| 0,5,0,3,
	| 0,1,4,0,
	| 2,5,0,0,
	| 0,6,0,5,
	| 0,0,2,7,
	| 2,0,2,0,
	| 5,0,0,3,
	| 0,0,3,3,
	| 5,0,0,5,
	| 0,0,3,4,
	| 0,1,0,1,
	| 0,1,1,0,
	| 6,0,4,0,
	| 0,3,2,0,
	| 2,0,0,6,
	| 3,0,4,0,
	| 3,7,0,0,
	| 6,5,0,0,
	| 0,3,0,4,
	| 0,7,4,0,
	| 0,4,7,0,
	| 0,0,5,2,
	| 4,0,0,3,
	| 1,4,0,0,
	| 0,5,3,0,
	| 5,5,0,0,
	| 0,4,0,5,
	| 3,0,4,0,
	| 0,6,0,7,
	| 3,0,5,0,
	| 0,2,7,0,
	| 7,4,0,0,
	| 0,4,0,3,
	| 0,0,6,3,
	| 0,0,0,0, |];

nResources = 30;
mastery = [| false,true,true,false,
	| false,true,true,true,
	| false,true,true,true,
	| false,false,false,true,
	| true,false,false,true,
	| false,true,true,true,
	| true,true,true,false,
	| false,false,true,false,
	| false,true,false,true,
	| true,false,false,false,
	| true,false,true,true,
	| false,true,false,false,
	| false,true,false,true,
	| false,true,false,false,
	| false,false,true,false,
	| false,false,true,false,
	| true,true,true,false,
	| false,false,true,true,
	| false,false,false,true,
	| false,true,true,false,
	| false,false,false,true,
	| false,false,true,true,
	| true,false,true,true,
	| true,false,false,true,
	| false,false,true,false,
	| true,false,false,true,
	| true,false,false,false,
	| false,false,false,true,
	| true,true,false,false,
	| true,true,true,false, |];

nPrecs = 61;
pred = [1,1,1,2,2,2,3,3,3,4,5,5,6,6,6,7,7,7,8,9,9,9,10,10,11,12,13,13,13,14,15,16,17,17,18,18,19,19,20,21,22,23,24,25,26,27,28,29,29,30,31,32,33,34,35,36,37,38,39,40,41];
succ = [2,3,4,9,5,6,11,12,23,24,14,31,29,7,8,10,20,18,21,17,19,13,34,37,26,15,38,22,16,20,25,25,33,32,35,21,28,24,30,37,27,31,26,27,36,40,31,36,39,37,41,41,36,38,39,38,41,40,42,42,42];

nUnrels = 589;
unpred = [2,2,2,2,2,2,3,3,3,3,3,3,3,3,3,3,3,3,3,3,3,3,3,3,3,3,3,3,3,3,3,3,4,4,4,4,4,4,4,4,4,4,4,4,4,4,4,4,4,4,4,4,4,4,4,4,4,4,4,4,4,4,4,4,5,5,5,5,5,5,5,5,5,5,5,5,5,5,5,5,5,5,5,5,5,5,5,5,5,5,5,5,5,5,6,6,6,6,6,6,6,6,6,6,6,6,6,6,6,6,6,6,6,7,7,7,7,7,7,7,7,7,7,7,7,7,7,7,7,7,7,7,7,7,7,8,8,8,8,8,8,8,8,8,8,8,8,8,8,8,8,8,8,8,8,8,8,8,8,8,8,8,8,8,8,9,9,9,9,9,9,9,9,9,9,9,9,9,9,9,10,10,10,10,10,10,10,10,10,10,10,10,10,10,10,10,10,10,10,10,10,10,10,10,10,10,11,11,11,11,11,11,11,11,11,11,11,11,11,11,11,11,11,11,11,11,11,11,11,11,11,11,12,12,12,12,12,12,12,12,12,12,12,12,12,12,12,12,12,12,12,12,12,12,12,12,12,13,13,13,13,13,13,13,13,13,13,13,13,13,13,13,13,13,13,13,13,13,13,14,14,14,14,14,14,14,14,14,14,14,14,14,14,14,14,14,14,14,14,14,14,14,15,15,15,15,15,15,15,15,15,15,15,15,15,15,15,15,15,15,15,15,15,15,15,16,16,16,16,16,16,16,16,16,16,16,16,16,16,16,16,16,16,16,16,16,16,17,17,17,17,17,17,17,17,17,17,17,17,17,17,17,17,17,17,18,18,18,18,18,18,18,18,18,18,18,18,18,18,18,18,18,18,19,19,19,19,19,19,19,19,19,19,19,19,19,19,20,20,20,20,20,20,20,20,20,20,20,20,20,20,20,20,20,20,21,21,21,21,21,21,21,21,21,21,21,21,21,21,21,21,21,21,22,22,22,22,22,22,22,22,22,22,22,22,22,22,22,22,22,23,23,23,23,23,23,23,23,23,23,23,23,23,23,23,23,24,24,24,24,24,24,24,24,24,24,24,24,24,25,25,25,25,25,25,25,25,25,25,25,25,25,25,26,26,26,26,26,26,26,26,26,26,26,26,27,27,27,27,27,27,27,27,27,27,27,27,27,28,28,28,28,28,28,28,28,28,28,28,29,29,29,29,29,29,29,29,30,30,30,30,30,30,30,30,30,31,31,31,31,31,31,31,31,31,32,32,32,32,32,32,32,32,33,33,33,33,33,34,34,34,34,34,35,35,35,35,35,36,36,36,37,37,37,38,38,39,39,40];
unsucc = [3,4,11,12,15,23,4,5,6,7,8,9,10,13,14,16,17,18,19,20,21,22,24,28,29,30,32,33,34,35,37,39,5,6,7,8,9,10,11,12,13,14,15,16,17,18,19,20,21,22,23,25,27,28,29,30,31,32,33,34,35,37,39,41,6,7,8,9,10,11,12,13,15,16,17,18,19,21,22,23,24,25,26,27,28,29,32,33,34,35,36,38,39,40,9,11,12,13,14,15,16,17,19,22,23,24,25,26,27,28,31,32,33,8,9,11,12,13,14,15,16,17,19,22,23,24,25,26,27,28,29,31,32,33,36,9,10,11,12,13,14,15,16,17,18,19,20,22,23,24,25,26,27,28,29,30,31,32,33,34,35,36,38,39,40,10,11,12,14,15,18,20,21,23,29,30,34,35,37,39,11,12,13,14,15,16,17,18,19,20,21,22,23,24,25,26,27,28,29,30,31,32,33,35,36,39,12,13,14,15,16,17,18,19,20,21,22,23,24,25,27,28,29,30,31,32,33,34,35,37,39,41,13,14,16,17,18,19,20,21,22,23,24,26,28,29,30,31,32,33,34,35,36,37,38,39,41,14,15,17,18,19,20,21,23,24,26,28,29,30,31,32,33,34,35,36,37,39,41,15,16,17,18,19,21,22,23,24,25,26,27,28,29,31,32,33,34,35,36,38,39,40,16,17,18,19,20,21,22,23,24,26,28,29,30,31,32,33,34,35,36,37,38,39,41,17,18,19,20,21,22,23,24,26,28,29,30,31,32,33,34,35,36,37,38,39,41,18,19,20,21,22,23,24,25,26,27,28,29,30,31,34,35,37,39,19,20,22,23,24,25,26,27,28,29,30,31,32,33,34,36,38,40,20,21,22,23,25,27,29,30,32,33,34,35,37,39,21,22,23,24,25,26,27,28,29,31,32,33,34,35,36,38,39,40,22,23,24,25,26,27,28,29,30,31,32,33,34,35,36,38,39,40,23,24,25,26,28,29,30,31,32,33,34,35,36,37,38,39,41,24,25,26,27,28,29,30,32,33,34,35,36,37,38,39,40,25,27,28,29,30,31,32,33,34,35,37,39,41,26,28,29,30,31,32,33,34,35,36,37,38,39,41,27,28,29,30,31,32,33,34,35,37,39,41,28,29,30,31,32,33,34,35,36,37,38,39,41,29,30,32,33,34,35,36,37,38,39,40,30,31,32,33,34,35,37,41,31,32,33,34,35,36,38,39,40,32,33,34,35,36,37,38,39,40,33,34,35,36,37,38,39,40,34,35,37,39,41,35,36,37,39,41,36,37,38,40,41,37,39,41,38,39,40,39,41,40,41,41];

USEFUL_RES = [{},
	{1,2,3,5,6,7,9,10,11,12,13,14,17,20,23,24,26,27,29,30},
	{1,2,3,4,5,6,7,9,11,12,13,14,17,18,19,20,21,22,23,24,26,28,29,30},
	{1,2,3,5,6,7,8,10,11,15,16,17,18,20,22,23,24,25,26,27,29,30},
	{1,2,3,4,5,6,7,8,9,11,13,15,16,17,18,19,20,21,22,23,24,25,26,28,30},
	{1,2,3,6,7,8,9,11,12,13,14,15,16,17,18,20,22,23,25,29,30},
	{1,2,3,4,5,6,7,8,9,11,13,15,16,17,18,19,20,21,22,23,24,25,26,28,30},
	{1,2,3,4,5,6,7,9,11,12,13,14,17,18,19,20,21,22,23,24,26,28,29,30},
	{1,2,3,6,7,8,9,11,12,13,14,15,16,17,18,20,22,23,25,29,30},
	{1,2,3,5,6,7,9,10,11,12,13,14,17,20,23,24,26,27,29,30},
	{1,2,3,4,5,6,7,9,11,12,13,14,17,18,19,20,21,22,23,24,26,28,29,30},
	{1,2,3,4,5,6,7,8,9,11,13,15,16,17,18,19,20,21,22,23,24,25,26,28,30},
	{1,2,3,5,6,7,8,10,11,15,16,17,18,20,22,23,24,25,26,27,29,30},
	{2,3,4,5,6,7,9,10,11,13,17,18,19,21,22,23,24,26,27,28,29,30},
	{1,2,3,4,5,6,7,8,9,11,13,15,16,17,18,19,20,21,22,23,24,25,26,28,30},
	{2,3,4,5,6,7,9,10,11,13,17,18,19,21,22,23,24,26,27,28,29,30},
	{1,2,3,4,5,6,7,8,9,11,13,15,16,17,18,19,20,21,22,23,24,25,26,28,30},
	{1,2,3,4,5,6,7,9,11,12,13,14,17,18,19,20,21,22,23,24,26,28,29,30},
	{1,2,3,6,7,8,9,11,12,13,14,15,16,17,18,20,22,23,25,29,30},
	{1,2,3,5,6,7,8,10,11,15,16,17,18,20,22,23,24,25,26,27,29,30},
	{1,2,3,6,7,8,9,11,12,13,14,15,16,17,18,20,22,23,25,29,30},
	{2,3,4,5,6,7,9,10,11,13,17,18,19,21,22,23,24,26,27,28,29,30},
	{1,2,3,5,6,7,8,10,11,15,16,17,18,20,22,23,24,25,26,27,29,30},
	{1,2,3,5,6,7,9,10,11,12,13,14,17,20,23,24,26,27,29,30},
	{1,2,3,5,6,7,9,10,11,12,13,14,17,20,23,24,26,27,29,30},
	{1,2,3,4,5,6,7,9,11,12,13,14,17,18,19,20,21,22,23,24,26,28,29,30},
	{1,2,3,6,7,8,9,11,12,13,14,15,16,17,18,20,22,23,25,29,30},
	{1,2,3,6,7,8,9,11,12,13,14,15,16,17,18,20,22,23,25,29,30},
	{1,2,3,4,5,6,7,8,9,11,13,15,16,17,18,19,20,21,22,23,24,25,26,28,30},
	{2,3,4,5,6,7,9,10,11,13,17,18,19,21,22,23,24,26,27,28,29,30},
	{1,2,3,5,6,7,9,10,11,12,13,14,17,20,23,24,26,27,29,30},
	{1,2,3,6,7,8,9,11,12,13,14,15,16,17,18,20,22,23,25,29,30},
	{1,2,3,5,6,7,9,10,11,12,13,14,17,20,23,24,26,27,29,30},
	{1,2,3,4,5,6,7,9,11,12,13,14,17,18,19,20,21,22,23,24,26,28,29,30},
	{1,2,3,5,6,7,8,10,11,15,16,17,18,20,22,23,24,25,26,27,29,30},
	{1,2,3,4,5,6,7,9,11,12,13,14,17,18,19,20,21,22,23,24,26,28,29,30},
	{1,2,3,5,6,7,8,10,11,15,16,17,18,20,22,23,24,25,26,27,29,30},
	{1,2,3,6,7,8,9,11,12,13,14,15,16,17,18,20,22,23,25,29,30},
	{1,2,3,5,6,7,9,10,11,12,13,14,17,20,23,24,26,27,29,30},
	{1,2,3,4,5,6,7,9,11,12,13,14,17,18,19,20,21,22,23,24,26,28,29,30},
	{1,2,3,4,5,6,7,8,9,11,13,15,16,17,18,19,20,21,22,23,24,25,26,28,30},
	{}];

POTENTIAL_ACT = [{2,3,4,5,6,7,8,9,10,11,12,13,15,17,18,19,20,21,23,24,25,26,27,28,29,31,32,33,34,35,36,37,38,39,40,41},
	{2,3,4,5,6,7,8,9,10,11,12,13,14,15,16,17,18,19,20,21,22,23,24,25,26,27,28,29,30,31,32,33,34,35,36,37,38,39,40,41},
	{2,3,4,5,6,7,8,9,10,11,12,13,14,15,16,17,18,19,20,21,22,23,24,25,26,27,28,29,30,31,32,33,34,35,36,37,38,39,40,41},
	{3,5,7,8,11,12,14,15,16,17,18,22,26,29,30,34,36,40,41},
	{2,3,4,5,7,8,10,11,12,13,14,15,16,17,18,20,22,23,24,25,26,29,30,31,33,34,35,36,37,39,40,41},
	{2,3,4,5,6,7,8,9,10,11,12,13,14,15,16,17,18,19,20,21,22,23,24,25,26,27,28,29,30,31,32,33,34,35,36,37,38,39,40,41},
	{2,3,4,5,6,7,8,9,10,11,12,13,14,15,16,17,18,19,20,21,22,23,24,25,26,27,28,29,30,31,32,33,34,35,36,37,38,39,40,41},
	{4,5,6,7,9,12,13,15,17,19,20,21,23,27,28,29,32,35,37,38,41},
	{2,3,5,6,7,8,9,10,11,12,14,15,16,17,18,19,21,22,24,25,26,27,28,29,30,31,32,33,34,36,38,39,40,41},
	{2,4,10,13,14,16,20,22,23,24,25,30,31,33,35,37,39},
	{2,3,4,5,6,7,8,9,10,11,12,13,14,15,16,17,18,19,20,21,22,23,24,25,26,27,28,29,30,31,32,33,34,35,36,37,38,39,40,41},
	{2,3,6,8,9,10,11,18,19,21,24,25,26,27,28,31,32,33,34,36,38,39,40},
	{2,3,5,6,7,8,9,10,11,12,14,15,16,17,18,19,21,22,24,25,26,27,28,29,30,31,32,33,34,36,38,39,40,41},
	{2,3,6,8,9,10,11,18,19,21,24,25,26,27,28,31,32,33,34,36,38,39,40},
	{4,5,6,7,9,12,13,15,17,19,20,21,23,27,28,29,32,35,37,38,41},
	{4,5,6,7,9,12,13,15,17,19,20,21,23,27,28,29,32,35,37,38,41},
	{2,3,4,5,6,7,8,9,10,11,12,13,14,15,16,17,18,19,20,21,22,23,24,25,26,27,28,29,30,31,32,33,34,35,36,37,38,39,40,41},
	{3,4,5,6,7,8,9,11,12,13,14,15,16,17,18,19,20,21,22,23,26,27,28,29,30,32,34,35,36,37,38,40,41},
	{3,5,7,8,11,12,14,15,16,17,18,22,26,29,30,34,36,40,41},
	{2,3,4,5,6,7,8,9,10,11,12,13,15,17,18,19,20,21,23,24,25,26,27,28,29,31,32,33,34,35,36,37,38,39,40,41},
	{3,5,7,8,11,12,14,15,16,17,18,22,26,29,30,34,36,40,41},
	{3,4,5,6,7,8,9,11,12,13,14,15,16,17,18,19,20,21,22,23,26,27,28,29,30,32,34,35,36,37,38,40,41},
	{2,3,4,5,6,7,8,9,10,11,12,13,14,15,16,17,18,19,20,21,22,23,24,25,26,27,28,29,30,31,32,33,34,35,36,37,38,39,40,41},
	{2,3,4,5,7,8,10,11,12,13,14,15,16,17,18,20,22,23,24,25,26,29,30,31,33,34,35,36,37,39,40,41},
	{4,5,6,7,9,12,13,15,17,19,20,21,23,27,28,29,32,35,37,38,41},
	{2,3,4,5,7,8,10,11,12,13,14,15,16,17,18,20,22,23,24,25,26,29,30,31,33,34,35,36,37,39,40,41},
	{2,4,10,13,14,16,20,22,23,24,25,30,31,33,35,37,39},
	{3,5,7,8,11,12,14,15,16,17,18,22,26,29,30,34,36,40,41},
	{2,3,4,6,8,9,10,11,13,14,16,18,19,20,21,22,23,24,25,26,27,28,30,31,32,33,34,35,36,37,38,39,40},
	{2,3,4,5,6,7,8,9,10,11,12,13,14,15,16,17,18,19,20,21,22,23,24,25,26,27,28,29,30,31,32,33,34,35,36,37,38,39,40,41}];
